
Log started (V11.0.0) Fri May 23 22:04:15 2008

Tried aggregator 1 time.
Reduced MIP has 530 rows, 15001 columns, and 30030 nonzeros.
Presolve time =    0.11 sec.
Clique table members: 500.
MIP emphasis: balance optimality and feasibility.
MIP search method: dynamic search.
Parallel mode: none, using 1 thread.
Root relaxation solution time =    2.50 sec.

        Nodes                                         Cuts/
   Node  Left     Objective  IInf  Best Integer     Best Node    ItCnt     Gap

*     0+    0                       525701.0000    16716.0412      802   96.82%
*     0+    0                        17081.0000    16716.0412      802    2.14%
      0     0    16734.0674    60    17081.0000      Fract: 5      885    2.03%
*     0+    0                        17080.0000    16734.0674      885    2.03%
      0     0    16747.2893    62    17080.0000   Flowcuts: 1     1060    1.95%
      0     0    16761.7460    66    17080.0000       Cuts: 3     1147    1.86%
*     0+    0                        17057.0000    16761.7460     1147    1.73%
      0     0    16772.9511    65    17057.0000       Cuts: 5     1287    1.67%
      0     0    16776.3585    66    17057.0000       Cuts: 5     1465    1.65%
      0     0    16776.4169    72    17057.0000       Cuts: 5     1504    1.64%
      0     0    16776.4229    79    17057.0000       Cuts: 4     1522    1.64%
*     0+    0                        17056.0000    16776.4229     1522    1.64%
*     0+    0                        17055.0000    16776.4229     1522    1.63%
*     0+    0                        17052.0000    16776.4229     1522    1.62%
      0     2    16776.4229    79    17052.0000    16776.4229     1522    1.62%
    100   102    16777.6462    72    17052.0000    16776.4459     2380    1.62%
*   200+  200                        17051.0000    16776.4459     3428    1.61%
    200   202    16777.7994    65    17051.0000    16776.4459     3428    1.61%
    300   300    16780.2037    66    17051.0000    16776.4459     4088    1.61%
    400   394    16799.0981    63    17051.0000    16776.4459     4922    1.61%
    500   494    16801.5929    59    17051.0000    16776.4459     6062    1.61%
    600   518    16895.4725   111    17051.0000    16894.8466    13068    0.92%
    700   541    16895.8019    89    17051.0000    16894.8466    15580    0.92%
    800   566    16896.2688    83    17051.0000    16894.8466    16400    0.92%
    900   591    16896.3045    80    17051.0000    16894.8466    17247    0.92%
   1000   619    16905.8626    80    17051.0000    16894.8466    21717    0.92%
Elapsed time = 234.03 sec. (tree size =  7.19 MB, solutions = 8)
   1100   646    16906.1999    73    17051.0000    16894.8466    24190    0.92%
   1200   699    16906.4018    69    17051.0000    16894.8466    26310    0.92%
   1300   799    17046.0000    38    17051.0000    16894.8466    27629    0.92%
   1400   899    16918.9458    74    17051.0000    16894.8466    30395    0.92%
   1500   999    16919.0566    73    17051.0000    16894.8466    32708    0.92%
   1600  1099    16919.3260    72    17051.0000    16894.8466    33497    0.92%
   1700  1199    16919.5133    75    17051.0000    16894.8466    34199    0.92%
   1800  1299    16928.7825    77    17051.0000    16894.8466    35606    0.92%
   1900  1399    16929.9534    74    17051.0000    16894.8466    39543    0.92%
   2000  1499    16940.5141    80    17051.0000    16894.8466    47273    0.92%
Elapsed time = 368.39 sec. (tree size = 18.91 MB, solutions = 8)
   2100  1599    16930.8258    77    17051.0000    16894.8466    50153    0.92%
   2200  1699    16940.5159    77    17051.0000    16894.8466    52352    0.92%
   2300  1799    16940.8546    78    17051.0000    16894.8466    57078    0.92%
   2400  1899    16941.3200    82    17051.0000    16894.8466    59127    0.92%
   2500  1999    16941.6850    82    17051.0000    16894.8466    60376    0.92%
   2600  2094    16953.0741    78    17051.0000    16894.8466    61872    0.92%
   2700  2190    16898.9128    92    17051.0000    16894.8989    65168    0.92%
   2800  2290    16899.3683    87    17051.0000    16894.8989    65881    0.92%
   2900  2390    16899.7435    83    17051.0000    16894.8989    66576    0.92%
   3000  2490    16899.8588    80    17051.0000    16894.8989    67904    0.92%
Elapsed time = 468.70 sec. (tree size = 31.43 MB, solutions = 8)
   3100  2585    16909.4240    82    17051.0000    16894.8989    69547    0.92%
   3200  2685    16909.5278    74    17051.0000    16894.8989    70146    0.92%
   3300  2776    16919.8850    74    17051.0000    16894.8989    71138    0.92%
   3400  2876    16920.6017    74    17051.0000    16894.8989    72170    0.92%
   3500  2976    16920.9673    74    17051.0000    16894.8989    73955    0.92%
   3600  3076    16921.4213    74    17051.0000    16894.8989    76096    0.92%
   3700  3176    16922.0533    73    17051.0000    16894.8989    77761    0.92%
   3800  3276    16922.6857    75    17051.0000    16894.8989    79676    0.92%
   3900  3376    16931.7827    74    17051.0000    16894.8989    81450    0.92%
   4000  3476    16932.9449    78    17051.0000    16894.8989    82758    0.92%
Elapsed time = 537.36 sec. (tree size = 44.53 MB, solutions = 8)
   4100  3576    16933.2557    79    17051.0000    16894.8989    84249    0.92%
   4200  3676    16933.4934    80    17051.0000    16894.8989    85742    0.92%
   4300  3776    16942.7811    76    17051.0000    16894.8989    87991    0.92%
   4400  3876    16943.0604    79    17051.0000    16894.8989    98224    0.92%
   4500  3976    16954.0520    77    17051.0000    16894.8989   109816    0.92%
   4600  4076    16943.6034    77    17051.0000    16894.8989   118123    0.92%
   4700  4176    16943.9198    79    17051.0000    16894.8989   122685    0.92%
   4800  4276    16954.6815    72    17051.0000    16894.8989   128404    0.92%
   4900  4376    16954.8840    76    17051.0000    16894.8989   132321    0.92%
   5000  4476    16955.0677    68    17051.0000    16894.8989   135200    0.92%
Elapsed time = 688.31 sec. (tree size = 57.96 MB, solutions = 8)
   5100  4576    16955.3572    68    17051.0000    16894.8989   137673    0.92%
   5200  4676    16955.4527    67    17051.0000    16894.8989   142737    0.92%
   5300  4776    16955.7477    63    17051.0000    16894.8989   144212    0.92%
   5400  4875    17044.0000    40    17051.0000    16894.8989   145729    0.92%
   5500  4973    16989.0892    50    17051.0000    16894.8989   147811    0.92%
   5600  5073    16989.6081    50    17051.0000    16894.8989   148020    0.92%
   5700  5168    16997.7744    48    17051.0000    16894.8989   148325    0.92%
   5800  5265    16913.6991   237    17051.0000    16895.1626   207660    0.91%
   5900  5365    16922.9945    98    17051.0000    16895.1626   210016    0.91%
   6000  5465    16900.1475   247    17051.0000    16895.1657   215678    0.91%
Elapsed time = 1055.16 sec. (tree size = 72.47 MB, solutions = 8)
   6100  5565    16900.4816   137    17051.0000    16895.1657   218124    0.91%
   6200  5665    16913.8540   217    17051.0000    16895.1681   226953    0.91%
   6300  5765    16914.9534   141    17051.0000    16895.1681   228631    0.91%
   6400  5863    16906.6365   168    17051.0000    16895.1694   233890    0.91%
   6500  5963    16907.2109    91    17051.0000    16895.1694   234786    0.91%
   6600  6063    16906.6206   219    17051.0000    16895.1763   240707    0.91%
   6700  6163    16920.9019   135    17051.0000    16895.1763   243397    0.91%
   6800  6263    16906.5708   192    17051.0000    16895.1771   249190    0.91%
   6900  6363    16907.1443   132    17051.0000    16895.1771   250603    0.91%
   7000  6463    16906.1710   249    17051.0000    16895.1784   257230    0.91%
Elapsed time = 1320.25 sec. (tree size = 90.87 MB, solutions = 8)
   7100  6563    16907.2553   135    17051.0000    16895.1784   259032    0.91%
   7200  6663    16907.0182   247    17051.0000    16895.2039   267552    0.91%
   7300  6763    16908.4236   156    17051.0000    16895.2039   269182    0.91%
   7400  6863    16906.7539   210    17051.0000    16895.2146   275824    0.91%
   7500  6963    16907.3642   110    17051.0000    16895.2146   277035    0.91%
   7600  7063    16900.5497   217    17051.0000    16895.2155   287896    0.91%
   7700  7163    16901.1164   122    17051.0000    16895.2155   290124    0.91%
   7800  7263    16920.6970   180    17051.0000    16895.2166   298102    0.91%
   7900  7363    16931.4024   110    17051.0000    16895.2166   299929    0.91%
   8000  7463    16906.9546   277    17051.0000    16895.2190   307934    0.91%
Elapsed time = 1590.92 sec. (tree size = 110.30 MB, solutions = 8)
   8100  7563    16908.2372   170    17051.0000    16895.2190   310258    0.91%
   8200  7663    16900.7458   277    17051.0000    16895.2223   317757    0.91%
   8300  7763    16907.3925   161    17051.0000    16895.2223   321343    0.91%
   8400  7863    16906.7317   228    17051.0000    16895.2225   329905    0.91%
   8500  7963    16907.2650   155    17051.0000    16895.2225   331422    0.91%
   8600  8063    16906.4711   294    17051.0000    16895.2231   338698    0.91%
   8700  8163    16915.1344   171    17051.0000    16895.2231   341203    0.91%
   8800  8263    16900.9921   319    17051.0000    16895.2260   349209    0.91%
Began writing nodes to disk (directory ./cpxa01652 created)
   8900  8363    16902.0247   177    17051.0000    16895.2260   351659    0.91%
   9000  8463    16907.0892   291    17051.0000    16895.2286   359200    0.91%
Elapsed time = 1831.53 sec. (tree size = 130.91 MB, solutions = 8)
Nodefile size =  3.42 MB (1.05 MB after compression)
   9100  8563    16908.3127   179    17051.0000    16895.2286   361840    0.91%
   9200  8663    16900.6648   238    17051.0000    16895.2287   374310    0.91%
   9300  8763    16901.5565   160    17051.0000    16895.2287   377179    0.91%
   9400  8863    16906.8983   263    17051.0000    16895.2291   384576    0.91%
   9500  8963    16907.6855   162    17051.0000    16895.2291   386149    0.91%
   9600  9063    16907.2916   287    17051.0000    16895.2295   394342    0.91%
   9700  9163    16908.3163   182    17051.0000    16895.2295   396607    0.91%
   9800  9263    16901.0261   319    17051.0000    16895.2307   405398    0.91%
   9900  9363    16901.9058   198    17051.0000    16895.2307   407925    0.91%
  10000  9463    16913.1819   218    17051.0000    16895.2313   419592    0.91%
Elapsed time = 2117.33 sec. (tree size = 152.44 MB, solutions = 8)
Nodefile size = 24.70 MB (7.78 MB after compression)
  10100  9563    16914.4020   133    17051.0000    16895.2313   421191    0.91%
  10200  9663    16906.6864   348    17051.0000    16895.2332   431160    0.91%
  10300  9763    16907.6884   201    17051.0000    16895.2332   434305    0.91%
  10400  9863    16913.3066   248    17051.0000    16895.2337   447971    0.91%
  10500  9963    16914.4151   170    17051.0000    16895.2337   451153    0.91%
  10600 10063    16906.9209   304    17051.0000    16895.2345   460565    0.91%
  10700 10163    16907.9054   173    17051.0000    16895.2345   462641    0.91%
  10800 10263    16900.8139   284    17051.0000    16895.2347   471851    0.91%
  10900 10363    16901.5751   170    17051.0000    16895.2347   474154    0.91%
  11000 10463    16901.0991   337    17051.0000    16895.2377   485262    0.91%
Elapsed time = 2436.70 sec. (tree size = 175.22 MB, solutions = 8)
Nodefile size = 47.75 MB (17.31 MB after compression)
  11100 10563    16902.2802   199    17051.0000    16895.2377   488583    0.91%
  11200 10663    16912.8231   280    17051.0000    16895.2400   500106    0.91%
  11300 10763    16913.7010   185    17051.0000    16895.2400   502849    0.91%
  11400 10863    16906.6562   343    17051.0000    16895.2408   513993    0.91%
  11500 10963    16907.2886   170    17051.0000    16895.2408   517032    0.91%
  11600 11063    16914.2152   176    17051.0000    16895.2413   534749    0.91%
  11700 11157    16915.6938   144    17051.0000    16895.2413   538034    0.91%
  11800 11257    16907.5652   247    17051.0000    16895.2492   554070    0.91%
  11900 11357    16908.5121   152    17051.0000    16895.2492   556111    0.91%
  12000 11457    16914.8488   286    17051.0000    16895.2519   571141    0.91%
Elapsed time = 2853.88 sec. (tree size = 199.15 MB, solutions = 8)
Nodefile size = 71.24 MB (33.74 MB after compression)
  12100 11557    16915.8791   191    17051.0000    16895.2519   573871    0.91%
  12200 11657    16907.3619   307    17051.0000    16895.2572   587624    0.91%
  12300 11757    16914.0025   202    17051.0000    16895.2572   590936    0.91%
  12400 11857    16901.3864   300    17051.0000    16895.2790   606212    0.91%
  12500 11957    16902.1355   215    17051.0000    16895.2790   608456    0.91%
  12600 12057    16907.6398   256    17051.0000    16895.2883   623509    0.91%
  12700 12157    16908.5689   168    17051.0000    16895.2883   626132    0.91%
  12800 12257    16916.6381   233    17051.0000    16895.2894   640557    0.91%
  12900 12357    16917.8584   156    17051.0000    16895.2894   643336    0.91%
  13000 12457    16907.6044   294    17051.0000    16895.2911   660118    0.91%
Elapsed time = 3303.22 sec. (tree size = 224.47 MB, solutions = 8)
Nodefile size = 97.02 MB (54.51 MB after compression)
  13100 12557    16908.2935   192    17051.0000    16895.2911   663129    0.91%
  13200 12657    16906.0872   235    17051.0000    16895.2938   672774    0.91%
  13300 12757    16907.1301   162    17051.0000    16895.2938   675387    0.91%
  13400 12857    16901.6784   296    17051.0000    16895.2948   691676    0.91%
  13500 12957    16902.6382   195    17051.0000    16895.2948   694137    0.91%
  13600 13057    16901.8368   312    17051.0000    16895.2997   710018    0.91%
  13700 13157    16902.6831   192    17051.0000    16895.2997   712596    0.91%
  13800 13257    16909.0111   290    17051.0000    16895.3029   725666    0.91%
  13900 13357    16918.3897   166    17051.0000    16895.3029   729325    0.91%
  14000 13457    16907.9770   256    17051.0000    16895.3029   743430    0.91%
Elapsed time = 3742.22 sec. (tree size = 251.06 MB, solutions = 8)
Nodefile size = 123.67 MB (77.09 MB after compression)
  14100 13557    16909.0161   182    17051.0000    16895.3029   745201    0.91%
  14200 13655    16908.6435   341    17051.0000    16895.3070   762694    0.91%
  14300 13755    16918.2386   209    17051.0000    16895.3070   768425    0.91%
  14400 13855    16908.0674   268    17051.0000    16895.3073   785445    0.91%
  14500 13955    16908.8063   169    17051.0000    16895.3073   787812    0.91%
  14600 14055    16914.2277   303    17051.0000    16895.3084   806105    0.91%
  14700 14155    16915.0839   225    17051.0000    16895.3084   809140    0.91%
  14800 14255    16907.8812   391    17051.0000    16895.3097   829315    0.91%
  14900 14355    16909.3379   178    17051.0000    16895.3097   834832    0.91%
  15000 14455    16907.9353   366    17051.0000    16895.3106   854506    0.91%
Elapsed time = 4396.48 sec. (tree size = 278.87 MB, solutions = 8)
Nodefile size = 151.26 MB (100.96 MB after compression)
  15100 14555    16917.2025   181    17051.0000    16895.3106   858505    0.91%
  15200 14655    16908.1493   328    17051.0000    16895.3141   875838    0.91%
  15300 14755    16909.5744   222    17051.0000    16895.3141   879152    0.91%
  15400 14855    16913.7536   223    17051.0000    16895.3158   901704    0.91%
  15500 14949    16923.4274   177    17051.0000    16895.3158   914333    0.91%
  15600 15049    16907.9713   304    17051.0000    16895.3212   935267    0.91%
  15700 15149    16908.8059   167    17051.0000    16895.3212   940266    0.91%
  15800 15249    16907.9140   359    17051.0000    16895.3213   958560    0.91%
  15900 15347    16909.3843   210    17051.0000    16895.3213   971324    0.91%
  16000 15447    16916.1036   295    17051.0000    16895.4311   983035    0.91%
Elapsed time = 5087.22 sec. (tree size = 307.95 MB, solutions = 8)
Nodefile size = 180.87 MB (127.35 MB after compression)
  16100 15547    16924.3528   170    17051.0000    16895.4311   986114    0.91%
  16200 15647    16908.0158   392    17051.0000    16895.4419  1006634    0.91%
  16300 15747    16909.0293   262    17051.0000    16895.4419  1010433    0.91%
  16400 15847    16908.4319   300    17051.0000    16895.4432  1027797    0.91%
  16500 15947    16915.2034   197    17051.0000    16895.4432  1032875    0.91%
  16600 16047    16908.4532   408    17051.0000    16895.4433  1049695    0.91%
  16700 16147    16909.4941   274    17051.0000    16895.4433  1056157    0.91%
  16800 16247    16908.6597   351    17051.0000    16895.4449  1073409    0.91%
  16900 16347    16918.1480   211    17051.0000    16895.4449  1080005    0.91%
  17000 16447    16908.6247   411    17051.0000    16895.4520  1096669    0.91%
Elapsed time = 5770.44 sec. (tree size = 338.98 MB, solutions = 8)
Nodefile size = 211.51 MB (155.06 MB after compression)
  17100 16547    16909.7070   279    17051.0000    16895.4520  1101689    0.91%
  17200 16647    16908.3944   326    17051.0000    16895.4551  1120039    0.91%
  17300 16747    16909.3547   223    17051.0000    16895.4551  1126677    0.91%
  17400 16847    16908.2490   361    17051.0000    16895.4598  1143445    0.91%
  17500 16947    16909.3544   244    17051.0000    16895.4598  1149244    0.91%
  17600 17047    16908.1211   327    17051.0000    16895.4652  1166917    0.91%
  17700 17147    16908.9003   245    17051.0000    16895.4652  1171568    0.91%
  17800 17247    16908.0113   413    17051.0000    16895.4653  1189596    0.91%
  17900 17347    16909.0416   279    17051.0000    16895.4653  1194916    0.91%
  18000 17447    16907.9188   357    17051.0000    16895.4686  1215468    0.91%
Elapsed time = 6442.80 sec. (tree size = 371.03 MB, solutions = 8)
Nodefile size = 244.01 MB (184.62 MB after compression)
  18100 17547    16908.7784   216    17051.0000    16895.4686  1221195    0.91%
  18200 17647    16908.6800   397    17051.0000    16895.4708  1241112    0.91%
  18300 17747    16909.6487   250    17051.0000    16895.4708  1245616    0.91%
  18400 17847    16908.0582   324    17051.0000    16895.4762  1267203    0.91%
  18500 17947    16908.8905   219    17051.0000    16895.4762  1270432    0.91%
  18600 18047    16908.5079   424    17051.0000    16895.4766  1292337    0.91%
  18700 18147    16917.9915   270    17051.0000    16895.4766  1297899    0.91%
  18800 18247    16908.0328   362    17051.0000    16895.4773  1321857    0.91%

Cover cuts applied:  1932
Flow cuts applied:  3
Zero-half cuts applied:  1
Gomory fractional cuts applied:  26

Solution pool: 8 solutions saved.

MIP - Time limit exceeded, integer feasible:  Objective = 1.7051000000e+004
Current MIP best bound = 1.6895477261e+004 (gap = 155.523, 0.91%)
Solution time = 7200.31 sec.  Iterations = 1322058  Nodes = 18803 (18249)


Incumbent solution
Variable Name           Solution Value
Cmax                      17051.000000
X_1_9                         1.000000
X_2_14                        1.000000
X_3_2                         1.000000
X_4_28                        1.000000
X_5_25                        1.000000
X_6_14                        1.000000
X_7_20                        1.000000
X_8_21                        1.000000
X_9_11                        1.000000
X_10_5                        1.000000
X_11_8                        1.000000
X_12_2                        1.000000
X_13_29                       1.000000
X_14_19                       1.000000
X_15_11                       1.000000
X_16_1                        1.000000
X_17_2                        1.000000
X_18_3                        1.000000
X_19_3                        1.000000
X_20_15                       1.000000
X_21_19                       1.000000
X_22_8                        1.000000
X_23_18                       1.000000
X_24_9                        1.000000
X_25_11                       1.000000
X_26_17                       1.000000
X_27_12                       1.000000
X_28_21                       1.000000
X_29_28                       1.000000
X_30_3                        1.000000
X_31_30                       1.000000
X_32_25                       1.000000
X_33_25                       1.000000
X_34_18                       1.000000
X_35_24                       1.000000
X_36_19                       1.000000
X_37_30                       1.000000
X_38_6                        1.000000
X_39_22                       1.000000
X_40_10                       1.000000
X_41_13                       1.000000
X_42_12                       1.000000
X_43_22                       1.000000
X_44_8                        1.000000
X_45_26                       1.000000
X_46_21                       1.000000
X_47_16                       1.000000
X_48_20                       1.000000
X_49_13                       1.000000
X_50_21                       1.000000
X_51_3                        1.000000
X_52_7                        1.000000
X_53_9                        1.000000
X_54_25                       1.000000
X_55_11                       1.000000
X_56_10                       1.000000
X_57_4                        1.000000
X_58_13                       1.000000
X_59_10                       1.000000
X_60_17                       1.000000
X_61_29                       1.000000
X_62_18                       1.000000
X_63_6                        1.000000
X_64_30                       1.000000
X_65_26                       1.000000
X_66_14                       1.000000
X_67_15                       1.000000
X_68_22                       1.000000
X_69_23                       1.000000
X_70_14                       1.000000
X_71_19                       1.000000
X_72_5                        1.000000
X_73_8                        1.000000
X_74_26                       1.000000
X_75_1                        1.000000
X_76_22                       1.000000
X_77_5                        1.000000
X_78_23                       1.000000
X_79_9                        1.000000
X_80_14                       1.000000
X_81_14                       1.000000
X_82_26                       1.000000
X_83_13                       1.000000
X_84_17                       1.000000
X_85_20                       1.000000
X_86_8                        1.000000
X_87_9                        1.000000
X_88_6                        1.000000
X_89_8                        1.000000
X_90_22                       1.000000
X_91_9                        1.000000
X_92_14                       1.000000
X_93_23                       1.000000
X_94_24                       1.000000
X_95_3                        1.000000
X_96_27                       1.000000
X_97_26                       1.000000
X_98_8                        1.000000
X_99_15                       1.000000
X_100_13                      1.000000
X_101_18                      1.000000
X_102_21                      1.000000
X_103_21                      1.000000
X_104_1                       1.000000
X_105_1                       1.000000
X_106_17                      1.000000
X_107_2                       1.000000
X_108_21                      1.000000
X_109_20                      1.000000
X_110_5                       1.000000
X_111_6                       1.000000
X_112_12                      1.000000
X_113_11                      1.000000
X_114_16                      1.000000
X_115_2                       1.000000
X_116_24                      1.000000
X_117_18                      1.000000
X_118_1                       1.000000
X_119_6                       1.000000
X_120_26                      1.000000
X_121_22                      1.000000
X_122_30                      1.000000
X_123_2                       1.000000
X_124_5                       1.000000
X_125_2                       1.000000
X_126_25                      1.000000
X_127_4                       1.000000
X_128_22                      1.000000
X_129_20                      1.000000
X_130_5                       1.000000
X_131_19                      1.000000
X_132_16                      1.000000
X_133_14                      1.000000
X_134_24                      1.000000
X_135_20                      1.000000
X_136_5                       1.000000
X_137_16                      1.000000
X_138_15                      1.000000
X_139_22                      1.000000
X_140_16                      1.000000
X_141_9                       1.000000
X_142_21                      1.000000
X_143_1                       1.000000
X_144_3                       1.000000
X_145_12                      1.000000
X_146_30                      1.000000
X_147_4                       1.000000
X_148_3                       1.000000
X_149_7                       1.000000
X_150_26                      1.000000
X_151_25                      1.000000
X_152_15                      1.000000
X_153_2                       1.000000
X_154_21                      1.000000
X_155_12                      1.000000
X_156_5                       1.000000
X_157_10                      1.000000
X_158_6                       1.000000
X_159_23                      1.000000
X_160_29                      1.000000
X_161_22                      1.000000
X_162_23                      1.000000
X_163_9                       1.000000
X_164_24                      1.000000
X_165_28                      1.000000
X_166_9                       1.000000
X_167_15                      1.000000
X_168_6                       1.000000
X_169_3                       1.000000
X_170_7                       1.000000
X_171_12                      1.000000
X_172_4                       1.000000
X_173_25                      1.000000
X_174_9                       1.000000
X_175_15                      1.000000
X_176_8                       1.000000
X_177_27                      1.000000
X_178_14                      1.000000
X_179_2                       1.000000
X_180_14                      1.000000
X_181_25                      1.000000
X_182_7                       1.000000
X_183_24                      1.000000
X_184_27                      1.000000
X_185_5                       1.000000
X_186_3                       1.000000
X_187_13                      1.000000
X_188_2                       1.000000
X_189_29                      1.000000
X_190_8                       1.000000
X_191_17                      1.000000
X_192_30                      1.000000
X_193_24                      1.000000
X_194_22                      1.000000
X_195_26                      1.000000
X_196_11                      1.000000
X_197_3                       1.000000
X_198_30                      1.000000
X_199_28                      1.000000
X_200_24                      1.000000
X_201_10                      1.000000
X_202_29                      1.000000
X_203_27                      1.000000
X_204_10                      1.000000
X_205_14                      1.000000
X_206_27                      1.000000
X_207_5                       1.000000
X_208_20                      1.000000
X_209_29                      1.000000
X_210_7                       1.000000
X_211_27                      1.000000
X_212_25                      1.000000
X_213_16                      1.000000
X_214_28                      1.000000
X_215_17                      1.000000
X_216_23                      1.000000
X_217_6                       1.000000
X_218_16                      1.000000
X_219_8                       1.000000
X_220_4                       1.000000
X_221_24                      1.000000
X_222_7                       1.000000
X_223_26                      1.000000
X_224_8                       1.000000
X_225_6                       1.000000
X_226_30                      1.000000
X_227_26                      1.000000
X_228_17                      1.000000
X_229_6                       1.000000
X_230_21                      1.000000
X_231_17                      1.000000
X_232_4                       1.000000
X_233_29                      1.000000
X_234_16                      1.000000
X_235_22                      1.000000
X_236_6                       1.000000
X_237_5                       1.000000
X_238_6                       1.000000
X_239_16                      1.000000
X_240_19                      1.000000
X_241_1                       1.000000
X_242_23                      1.000000
X_243_26                      1.000000
X_244_15                      1.000000
X_245_1                       1.000000
X_246_18                      1.000000
X_247_27                      1.000000
X_248_2                       1.000000
X_249_18                      1.000000
X_250_28                      1.000000
X_251_29                      1.000000
X_252_12                      1.000000
X_253_27                      1.000000
X_254_19                      1.000000
X_255_28                      1.000000
X_256_7                       1.000000
X_257_5                       1.000000
X_258_8                       1.000000
X_259_16                      1.000000
X_260_10                      1.000000
X_261_11                      1.000000
X_262_19                      1.000000
X_263_5                       1.000000
X_264_4                       1.000000
X_265_27                      1.000000
X_266_22                      1.000000
X_267_30                      1.000000
X_268_25                      1.000000
X_269_4                       1.000000
X_270_27                      1.000000
X_271_28                      1.000000
X_272_18                      1.000000
X_273_13                      1.000000
X_274_15                      1.000000
X_275_11                      1.000000
X_276_11                      1.000000
X_277_27                      1.000000
X_278_1                       1.000000
X_279_22                      1.000000
X_280_1                       1.000000
X_281_4                       1.000000
X_282_29                      1.000000
X_283_17                      1.000000
X_284_30                      1.000000
X_285_10                      1.000000
X_286_18                      1.000000
X_287_28                      1.000000
X_288_19                      1.000000
X_289_14                      1.000000
X_290_11                      1.000000
X_291_20                      1.000000
X_292_7                       1.000000
X_293_17                      1.000000
X_294_15                      1.000000
X_295_7                       1.000000
X_296_3                       1.000000
X_297_19                      1.000000
X_298_6                       1.000000
X_299_23                      1.000000
X_300_9                       1.000000
X_301_10                      1.000000
X_302_12                      1.000000
X_303_12                      1.000000
X_304_12                      1.000000
X_305_13                      1.000000
X_306_6                       1.000000
X_307_26                      1.000000
X_308_8                       1.000000
X_309_24                      1.000000
X_310_1                       1.000000
X_311_21                      1.000000
X_312_25                      1.000000
X_313_19                      1.000000
X_314_18                      1.000000
X_315_7                       1.000000
X_316_27                      1.000000
X_317_29                      1.000000
X_318_30                      1.000000
X_319_30                      1.000000
X_320_16                      1.000000
X_321_22                      1.000000
X_322_15                      1.000000
X_323_28                      1.000000
X_324_15                      1.000000
X_325_19                      1.000000
X_326_20                      1.000000
X_327_7                       1.000000
X_328_9                       1.000000
X_329_19                      1.000000
X_330_8                       1.000000
X_331_3                       1.000000
X_332_22                      1.000000
X_333_12                      1.000000
X_334_19                      1.000000
X_335_4                       1.000000
X_336_10                      1.000000
X_337_24                      1.000000
X_338_24                      1.000000
X_339_13                      1.000000
X_340_15                      1.000000
X_341_12                      1.000000
X_342_18                      1.000000
X_343_4                       1.000000
X_344_17                      1.000000
X_345_4                       1.000000
X_346_27                      1.000000
X_347_23                      1.000000
X_348_28                      1.000000
X_349_15                      1.000000
X_350_11                      1.000000
X_351_25                      1.000000
X_352_14                      1.000000
X_353_13                      1.000000
X_354_18                      1.000000
X_355_19                      1.000000
X_356_3                       1.000000
X_357_25                      1.000000
X_358_22                      1.000000
X_359_10                      1.000000
X_360_18                      1.000000
X_361_21                      1.000000
X_362_5                       1.000000
X_363_21                      1.000000
X_364_30                      1.000000
X_365_2                       1.000000
X_366_23                      1.000000
X_367_5                       1.000000
X_368_24                      1.000000
X_369_7                       1.000000
X_370_21                      1.000000
X_371_25                      1.000000
X_372_20                      1.000000
X_373_20                      1.000000
X_374_7                       1.000000
X_375_7                       1.000000
X_376_17                      1.000000
X_377_18                      1.000000
X_378_28                      1.000000
X_379_11                      1.000000
X_380_19                      1.000000
X_381_13                      1.000000
X_382_28                      1.000000
X_383_11                      1.000000
X_384_8                       1.000000
X_385_4                       1.000000
X_386_28                      1.000000
X_387_1                       1.000000
X_388_9                       1.000000
X_389_20                      1.000000
X_390_29                      1.000000
X_391_11                      1.000000
X_392_7                       1.000000
X_393_13                      1.000000
X_394_9                       1.000000
X_395_23                      1.000000
X_396_30                      1.000000
X_397_2                       1.000000
X_398_23                      1.000000
X_399_26                      1.000000
X_400_4                       1.000000
X_401_15                      1.000000
X_402_4                       1.000000
X_403_28                      1.000000
X_404_27                      1.000000
X_405_27                      1.000000
X_406_21                      1.000000
X_407_20                      1.000000
X_408_22                      1.000000
X_409_16                      1.000000
X_410_23                      1.000000
X_411_26                      1.000000
X_412_25                      1.000000
X_413_18                      1.000000
X_414_30                      1.000000
X_415_1                       1.000000
X_416_18                      1.000000
X_417_9                       1.000000
X_418_7                       1.000000
X_419_16                      1.000000
X_420_1                       1.000000
X_421_10                      1.000000
X_422_17                      1.000000
X_423_10                      1.000000
X_424_3                       1.000000
X_425_2                       1.000000
X_426_17                      1.000000
X_427_24                      1.000000
X_428_14                      1.000000
X_429_3                       1.000000
X_430_29                      1.000000
X_431_1                       1.000000
X_432_29                      1.000000
X_433_15                      1.000000
X_434_14                      1.000000
X_435_3                       1.000000
X_436_29                      1.000000
X_437_29                      1.000000
X_438_9                       1.000000
X_439_19                      1.000000
X_440_23                      1.000000
X_441_24                      1.000000
X_442_27                      1.000000
X_443_25                      1.000000
X_444_8                       1.000000
X_445_27                      1.000000
X_446_16                      1.000000
X_447_11                      1.000000
X_448_13                      1.000000
X_449_12                      1.000000
X_450_1                       1.000000
X_451_8                       1.000000
X_452_18                      1.000000
X_453_23                      1.000000
X_454_29                      1.000000
X_455_26                      1.000000
X_456_28                      1.000000
X_457_20                      1.000000
X_458_24                      1.000000
X_459_7                       1.000000
X_460_17                      1.000000
X_461_17                      1.000000
X_462_29                      1.000000
X_463_13                      1.000000
X_464_12                      1.000000
X_465_11                      1.000000
X_466_14                      1.000000
X_467_30                      1.000000
X_468_10                      1.000000
X_469_21                      1.000000
X_470_6                       1.000000
X_471_16                      1.000000
X_472_17                      1.000000
X_473_23                      1.000000
X_474_28                      1.000000
X_475_9                       1.000000
X_476_6                       1.000000
X_477_13                      1.000000
X_478_20                      1.000000
X_479_10                      1.000000
X_480_25                      1.000000
X_481_2                       1.000000
X_482_10                      1.000000
X_483_2                       1.000000
X_484_15                      1.000000
X_485_12                      1.000000
X_486_30                      1.000000
X_487_3                       1.000000
X_488_13                      1.000000
X_489_26                      1.000000
X_490_5                       1.000000
X_491_26                      1.000000
X_492_10                      1.000000
X_493_16                      1.000000
X_494_14                      1.000000
X_495_12                      1.000000
X_496_4                       1.000000
X_497_23                      1.000000
X_498_4                       1.000000
X_499_6                       1.000000
X_500_20                      1.000000
All other variables in the range 1-15001 are 0.
